PARAMETER_FILE = even/even_uncomplete_graph_new/de/par/random165.par
PROBLEM_FILE = even/even_uncomplete_graph_new/de/mat/random165.tsp
Successes/Runs = 0/10
Cost.min = 955, Cost.avg = 955.00, Cost.max = 955
Gap.min = 0.0000%, Gap.avg = 0.0000%, Gap.max = 0.0000%
Trials.min = 1000, Trials.avg = 1000.0, Trials.max = 1000
Time.min = 0.36 sec., Time.avg = 0.57 sec., Time.max = 0.92 sec.
Time.total = 5.86 sec.
